% File represents an instance of a Composite Structure problem to be solved by a CP framework
% Created on 2025-03-26 10:42:00.812
T = 58;
n = 36;
m = 60;
edges = [(2, 1),
(8, 7),
(14, 13),
(20, 19),
(26, 25),
(32, 31),
(3, 2),
(9, 8),
(15, 14),
(21, 20),
(27, 26),
(32, 33),
(4, 3),
(10, 9),
(15, 16),
(22, 21),
(28, 27),
(34, 33),
(4, 5),
(10, 11),
(16, 17),
(22, 23),
(29, 28),
(35, 34),
(6, 5),
(11, 12),
(18, 17),
(24, 23),
(29, 30),
(35, 36),
(1, 7),
(13, 7),
(13, 19),
(25, 19),
(31, 25),
(2, 8),
(14, 8),
(14, 20),
(26, 20),
(32, 26),
(3, 9),
(15, 9),
(15, 21),
(27, 21),
(27, 33),
(4, 10),
(10, 16),
(22, 16),
(28, 22),
(28, 34),
(11, 5),
(11, 17),
(23, 17),
(29, 23),
(29, 35),
(6, 12),
(18, 12),
(24, 18),
(24, 30),
(30, 36)];
counts = [|12, 16, 12, 8,
|12, 18, 12, 8,
|12, 18, 12, 12,
|12, 20, 12, 14,
|12, 16, 12, 12,
|12, 18, 12, 12,
|10, 16, 10, 6,
|10, 16, 10, 8,
|12, 18, 12, 8,
|12, 18, 12, 14,
|12, 16, 12, 14,
|12, 16, 12, 8,
|10, 18, 10, 8,
|10, 20, 10, 10,
|12, 20, 12, 10,
|12, 18, 12, 10,
|12, 16, 12, 10,
|12, 16, 12, 12,
|10, 14, 10, 8,
|10, 16, 10, 8,
|10, 18, 10, 10,
|12, 20, 12, 10,
|12, 18, 12, 10,
|12, 22, 12, 12,
|12, 14, 12, 8,
|12, 18, 12, 8,
|12, 18, 12, 12,
|12, 20, 12, 12,
|12, 20, 12, 14,
|12, 20, 12, 8,
|12, 18, 12, 8,
|12, 18, 12, 10,
|12, 16, 12, 8,
|12, 20, 12, 8,
|12, 20, 12, 10,
|12, 20, 12, 6|];
